minizinc/sudoku_problems2/sudoku_p81.dzn
%
% sudoku_p81.dzn
% See http://www.hakank.org/minizinc/sudoku_gcc.mzn
% 
% This problem is problem 81 from
% Gecode's sudoku.cpp
% http://www.gecode.org/gecode-doc-latest/sudoku_8cpp-source.html
% 
x = array2d(1..n, 1..n, [   
% http://janko.at/Raetsel/Sudoku/593.a.htm
% 81
  _,  2, 14, 13,  _,  4,  _,  _,  _, 12,  _,  _,  _, 15,  _,  _,
  _,  8,  _, 15, 14,  _,  6,  _,  1,  _,  _,  _,  _,  _, 10,  4,
 10,  _,  _,  7,  _,  8, 15,  _,  2,  9,  _, 11,  _,  _,  _, 12,
  _,  _,  _,  _,  3, 16, 12, 11,  _,  _,  _,  5,  _,  8,  7, 13,
  _,  _,  4,  5, 13, 10,  _,  _, 11,  7, 15,  3, 12,  _,  6,  _,
  _,  _,  _,  _, 16,  _,  _,  _,  4,  _,  _, 12, 10,  2,  _,  5,
  2,  _,  7,  _, 15,  _,  _, 12, 16,  _,  _,  _,  3,  4, 11,  _,
  _, 14, 13,  _, 11,  5,  4,  3,  8,  1,  _,  _, 16,  _,  _,  _,
  _,  _,  _,  4,  _,  _,  8,  2,  5, 16, 11, 14,  _,  3, 15,  _,
  _, 11,  5, 16,  _,  _,  _,  6,  3,  _,  _, 15,  _, 12,  _,  1,
  1,  _, 15,  2,  7,  _,  _, 14,  _,  _,  _,  4,  _,  _,  _,  _,
  _, 13,  _,  8,  4, 15, 16,  5,  _,  _,  1,  6,  7, 11,  _,  _,
  3, 12,  1,  _,  2,  _,  _,  _, 13, 11,  8, 16,  _,  _,  _,  _,
 13,  _,  _,  _,  6,  _,  5,  9,  _, 15,  3,  _,  8,  _,  _,  2,
  4, 16,  _,  _,  _,  _,  _, 15,  _, 10,  _,  7,  1,  _, 12,  _,
  _,  _,  8,  _,  _,  _, 11,  _,  _,  _,  9,  _, 14, 13,  3,  _
]);

n = 16;


